(set-logic QF_S)
(declare-fun var0 () String)
(declare-fun var1 () String)
(declare-fun var2 () String)
(declare-fun var3 () String)
(declare-fun var4 () String)
(declare-fun var5 () String)
(declare-fun var6 () String)
(declare-fun var7 () String)
(declare-fun var8 () String)
(declare-fun var9 () String)
(declare-fun var10 () String)
(declare-fun var11 () String)
(declare-fun var12 () String)
(declare-fun var13 () String)
(declare-fun var14 () String)
(declare-fun var15 () String)
(declare-fun var16 () String)
(declare-fun var17 () String)
(declare-fun var18 () String)
(declare-fun var19 () String)
(declare-fun var20 () String)
(declare-fun var21 () String)
(declare-fun var22 () String)
(declare-fun var23 () String)
(declare-fun var24 () String)
(declare-fun var25 () String)
(declare-fun var26 () String)
(declare-fun var27 () String)
(declare-fun var28 () String)
(declare-fun var29 () String)
(declare-fun var30 () String)
(declare-fun var31 () String)
(declare-fun var32 () String)
(declare-fun var33 () String)
(declare-fun var34 () String)
(declare-fun var35 () String)
(declare-fun var36 () String)
(declare-fun var37 () String)
(declare-fun var38 () String)
(declare-fun var39 () String)
(declare-fun var40 () String)
(declare-fun var41 () String)
(declare-fun var42 () String)
(declare-fun var43 () String)
(declare-fun var44 () String)
(declare-fun var45 () String)
(declare-fun var46 () String)
(declare-fun var47 () String)
(declare-fun var48 () String)
(declare-fun var49 () String)
(declare-fun var50 () String)
(declare-fun var51 () String)
(declare-fun var52 () String)
(declare-fun var53 () String)
(declare-fun var54 () String)
(declare-fun var55 () String)
(declare-fun var56 () String)
(declare-fun var57 () String)
(declare-fun var58 () String)
(declare-fun var59 () String)
(declare-fun var60 () String)
(assert (= var0 (str.++ var1 var2)))
(assert (= var2 (str.++ var3 var4)))
(assert (= var4 (str.++ var5 var6)))
(assert (= var6 (str.++ var7 var8)))
(assert (= var8 (str.++ var9 var10)))
(assert (= var10 (str.++ var11 var12)))
(assert (= var12 (str.++ var13 var14)))
(assert (= var14 (str.++ var15 var16)))
(assert (= var16 (str.++ var17 var18)))
(assert (= var18 (str.++ var19 var20)))
(assert (= var20 (str.++ var21 var22)))
(assert (= var22 (str.++ var23 var24)))
(assert (= var24 (str.++ var25 var26)))
(assert (= var26 (str.++ var27 var28)))
(assert (= var28 (str.++ var29 var30)))
(assert (= var30 (str.++ var31 var32)))
(assert (= var32 (str.++ var33 var34)))
(assert (= var34 (str.++ var35 var36)))
(assert (= var36 (str.++ var37 var38)))
(assert (= var38 (str.++ var39 var40)))
(assert (= var40 (str.++ var41 var42)))
(assert (= var42 (str.++ var43 var44)))
(assert (= var44 (str.++ var45 var46)))
(assert (= var46 (str.++ var47 var48)))
(assert (= var48 (str.++ var49 var50)))
(assert (= var50 (str.++ var51 var52)))
(assert (= var52 (str.++ var53 var54)))
(assert (= var54 (str.++ var55 var56)))
(assert (= var56 (str.++ var57 var58)))
(assert (= var58 (str.++ var59 var60)))
(assert (= var0 "solution"))
(assert (= "?" (str.at var32 23)))
(assert (= "X" (str.at var39 231)))
(assert (= "0" (str.at var46 183)))
(assert (= "k" (str.at var7 564)))
(assert (= "o" (str.at var8 524)))
(assert (= "c" (str.at var22 392)))
(assert (= "?" (str.at var58 963)))
(assert (= "-" (str.at var57 625)))
(assert (= "Q" (str.at var33 681)))
(assert (= "@" (str.at var30 187)))
(assert (= "<" (str.at var49 222)))
(assert (= "2" (str.at var39 147)))
(assert (= "8" (str.at var9 802)))
(assert (= "4" (str.at var11 106)))
(assert (= "x" (str.at var44 361)))
(assert (= "E" (str.at var1 687)))
(assert (= "d" (str.at var35 368)))
(assert (= "L" (str.at var38 411)))
(assert (= "8" (str.at var12 406)))
(assert (= "E" (str.at var26 31)))
(assert (= "1" (str.at var7 163)))
(assert (= ">" (str.at var42 920)))
(assert (= "/" (str.at var20 963)))
(assert (= "4" (str.at var4 261)))
(assert (= ";" (str.at var29 284)))
(assert (= "6" (str.at var21 833)))
(assert (= "w" (str.at var41 716)))
(assert (= "X" (str.at var9 522)))
(assert (= "s" (str.at var43 861)))
(assert (= "5" (str.at var55 845)))
(assert (= "z" (str.at var32 805)))
(assert (= "N" (str.at var35 202)))
(assert (= "A" (str.at var9 956)))
(assert (= "j" (str.at var40 838)))
(assert (= "L" (str.at var6 457)))
(assert (= "C" (str.at var18 454)))
(assert (= "\\" (str.at var21 526)))
(assert (= "S" (str.at var39 180)))
(assert (= "P" (str.at var48 204)))
(assert (= "s" (str.at var60 703)))
(assert (= "G" (str.at var25 614)))
(assert (= "4" (str.at var12 211)))
(assert (= "U" (str.at var40 253)))
(assert (= ":" (str.at var28 384)))
(assert (= "<" (str.at var5 406)))
(assert (= "1" (str.at var36 505)))
(assert (= "^" (str.at var38 203)))
(assert (= "2" (str.at var25 972)))
(assert (= "j" (str.at var49 785)))
(assert (= "8" (str.at var20 136)))
(assert (= "f" (str.at var57 755)))
(assert (= "s" (str.at var2 272)))
(assert (= "K" (str.at var31 616)))
(assert (= "W" (str.at var31 796)))
(assert (= """" (str.at var46 1000)))
(assert (= "d" (str.at var56 42)))
(assert (= "q" (str.at var6 159)))
(assert (= "-" (str.at var48 917)))
(assert (= "T" (str.at var2 929)))
(assert (= "+" (str.at var47 247)))
(assert (= "E" (str.at var27 527)))
(assert (= "c" (str.at var42 607)))
(assert (= ">" (str.at var49 40)))
(assert (= "4" (str.at var55 474)))
(assert (= "5" (str.at var56 582)))
(assert (= "t" (str.at var41 83)))
(assert (= "B" (str.at var43 824)))
(assert (= ";" (str.at var8 557)))
(assert (= "k" (str.at var32 512)))
(assert (= "Q" (str.at var2 445)))
(assert (= "g" (str.at var30 263)))
(assert (= "\\" (str.at var57 931)))
(assert (= "'" (str.at var51 832)))
(assert (= "]" (str.at var22 769)))
(assert (= "B" (str.at var48 835)))
(assert (= "T" (str.at var56 806)))
(assert (= "-" (str.at var23 935)))
(assert (= "n" (str.at var29 987)))
(assert (= "j" (str.at var25 847)))
(assert (= "-" (str.at var35 354)))
(assert (= ")" (str.at var21 965)))
(assert (= "k" (str.at var38 188)))
(assert (= "d" (str.at var27 291)))
(assert (= "9" (str.at var59 97)))
(assert (= "/" (str.at var23 510)))
(assert (= "k" (str.at var47 447)))
(assert (= "/" (str.at var24 267)))
(assert (= "'" (str.at var35 483)))
(assert (= "9" (str.at var40 458)))
(assert (= "$" (str.at var53 449)))
(assert (= "8" (str.at var58 909)))
(assert (= "C" (str.at var33 18)))
(assert (= "A" (str.at var25 670)))
(assert (= "T" (str.at var9 62)))
(assert (= "p" (str.at var1 856)))
(assert (= "R" (str.at var5 761)))
(assert (= "g" (str.at var54 243)))
(assert (= "'" (str.at var17 166)))
(assert (= "q" (str.at var7 524)))
(assert (= "B" (str.at var34 900)))
(assert (= "H" (str.at var57 206)))
(assert (= "@" (str.at var24 699)))
(assert (= "W" (str.at var53 627)))
(assert (= "w" (str.at var2 207)))
(assert (= "?" (str.at var29 184)))
(assert (= "d" (str.at var28 702)))
(assert (= "`" (str.at var10 207)))
(assert (= "]" (str.at var48 103)))
(assert (= "J" (str.at var28 198)))
(assert (= "P" (str.at var54 584)))
(assert (= "<" (str.at var44 400)))
(assert (= ")" (str.at var53 281)))
(assert (= "}" (str.at var41 823)))
(assert (= "|" (str.at var34 636)))
(assert (= "l" (str.at var10 546)))
(assert (= "," (str.at var32 531)))
(assert (= ";" (str.at var52 849)))
(assert (= "q" (str.at var52 408)))
(assert (= "]" (str.at var29 747)))
(assert (= "W" (str.at var6 85)))
(assert (= "D" (str.at var50 250)))
(assert (= "h" (str.at var6 731)))
(assert (= "v" (str.at var44 134)))
(assert (= "^" (str.at var22 576)))
(assert (= "*" (str.at var18 970)))
(assert (= "." (str.at var10 3)))
(assert (= "X" (str.at var30 909)))
(assert (= "<" (str.at var30 449)))
(assert (= "j" (str.at var4 718)))
(assert (= "'" (str.at var36 992)))
(assert (= "-" (str.at var32 819)))
(assert (= "f" (str.at var43 262)))
(assert (= "d" (str.at var47 131)))
(assert (= "n" (str.at var41 559)))
(assert (= "p" (str.at var20 707)))
(assert (= "2" (str.at var52 824)))
(assert (= "n" (str.at var34 96)))
(assert (= "t" (str.at var55 835)))
(assert (= "=" (str.at var54 552)))
(assert (= "9" (str.at var19 365)))
(assert (= "-" (str.at var8 906)))
(assert (= "a" (str.at var2 436)))
(assert (= "T" (str.at var34 10)))
(assert (= "N" (str.at var33 722)))
(assert (= "l" (str.at var14 843)))
(assert (= "8" (str.at var11 420)))
(assert (= "B" (str.at var20 831)))
(assert (= "W" (str.at var28 694)))
(assert (= "c" (str.at var28 836)))
(assert (= "U" (str.at var27 699)))
(assert (= "o" (str.at var26 907)))
(assert (= "A" (str.at var31 189)))
(assert (= ">" (str.at var16 196)))
(assert (= "t" (str.at var32 844)))
(assert (= "G" (str.at var56 268)))
(assert (= ":" (str.at var9 730)))
(assert (= "(" (str.at var55 802)))
(assert (= "Z" (str.at var20 183)))
(assert (= "p" (str.at var32 386)))
(assert (= "T" (str.at var40 832)))
(assert (= ">" (str.at var56 270)))
(assert (= "}" (str.at var38 755)))
(assert (= "r" (str.at var52 446)))
(assert (= ">" (str.at var55 271)))
(assert (= "m" (str.at var29 969)))
(assert (= "r" (str.at var20 364)))
(assert (= "J" (str.at var60 714)))
(assert (= "_" (str.at var29 344)))
(assert (= "(" (str.at var22 591)))
(assert (= "[" (str.at var20 459)))
(assert (= "9" (str.at var27 386)))
(assert (= "\\" (str.at var15 378)))
(assert (= "1" (str.at var45 395)))
(assert (= "#" (str.at var5 261)))
(assert (= "R" (str.at var9 945)))
(assert (= "K" (str.at var57 144)))
(assert (= "W" (str.at var33 614)))
(assert (= "m" (str.at var36 379)))
(assert (= "p" (str.at var37 829)))
(assert (= "{" (str.at var59 999)))
(assert (= "5" (str.at var47 868)))
(assert (= "U" (str.at var2 162)))
(assert (= "*" (str.at var20 951)))
(assert (= "b" (str.at var40 265)))
(assert (= "}" (str.at var38 427)))
(assert (= "U" (str.at var59 717)))
(assert (= "(" (str.at var9 574)))
(assert (= "/" (str.at var46 942)))
(assert (= "T" (str.at var21 891)))
(assert (= "S" (str.at var48 804)))
(assert (= "{" (str.at var32 469)))
(assert (= "b" (str.at var28 840)))
(assert (= ":" (str.at var54 340)))
(assert (= "g" (str.at var29 98)))
(assert (= "T" (str.at var12 380)))
(assert (= ":" (str.at var51 670)))
(assert (= "~" (str.at var43 941)))
(assert (= "}" (str.at var12 384)))
(assert (= "*" (str.at var16 679)))
(assert (= "c" (str.at var21 632)))
(assert (= "!" (str.at var35 3)))
(assert (= "#" (str.at var17 950)))
(assert (= "T" (str.at var3 814)))
(assert (= "@" (str.at var57 461)))
(assert (= "m" (str.at var56 690)))
(assert (= "1" (str.at var44 960)))
(assert (= "/" (str.at var29 750)))
(assert (= "7" (str.at var12 420)))
(assert (= "0" (str.at var18 62)))
(assert (= "T" (str.at var10 168)))
(assert (= "&" (str.at var44 791)))
(assert (= "u" (str.at var7 259)))
(assert (= "z" (str.at var12 141)))
(assert (= "q" (str.at var17 682)))
(assert (= "s" (str.at var22 914)))
(assert (= "p" (str.at var36 823)))
(assert (= "L" (str.at var17 644)))
(assert (= "c" (str.at var51 528)))
(assert (= "-" (str.at var1 137)))
(assert (= "'" (str.at var48 410)))
(assert (= "," (str.at var18 721)))
(assert (= "I" (str.at var59 443)))
(assert (= "n" (str.at var44 250)))
(assert (= "G" (str.at var27 268)))
(assert (= "9" (str.at var53 204)))
(assert (= "1" (str.at var60 60)))
(assert (= "Y" (str.at var48 570)))
(assert (= "s" (str.at var18 452)))
(assert (= "N" (str.at var25 134)))
(assert (= "`" (str.at var45 22)))
(assert (= "}" (str.at var38 353)))
(assert (= "M" (str.at var36 554)))
(assert (= "@" (str.at var8 786)))
(assert (= "p" (str.at var19 728)))
(assert (= "K" (str.at var6 43)))
(assert (= "H" (str.at var38 819)))
(assert (= "M" (str.at var7 938)))
(assert (= "Z" (str.at var56 447)))
(assert (= "n" (str.at var21 259)))
(assert (= ")" (str.at var59 847)))
(assert (= "9" (str.at var0 204)))
(assert (= "=" (str.at var18 426)))
(assert (= "2" (str.at var51 759)))
(assert (= "_" (str.at var15 796)))
(assert (= "6" (str.at var26 118)))
(assert (= "[" (str.at var28 349)))
(assert (= "t" (str.at var43 139)))
(assert (= "y" (str.at var22 555)))
(assert (= "r" (str.at var13 303)))
(assert (= """" (str.at var26 440)))
(assert (= ";" (str.at var21 522)))
(assert (= "<" (str.at var59 407)))
(assert (= "#" (str.at var17 389)))
(assert (= "N" (str.at var4 781)))
(assert (= "g" (str.at var13 339)))
(assert (= "q" (str.at var52 530)))
(assert (= "v" (str.at var2 312)))
(assert (= ":" (str.at var20 436)))
(assert (= "i" (str.at var41 401)))
(assert (= "*" (str.at var8 770)))
(assert (= "," (str.at var43 479)))
(assert (= "]" (str.at var50 899)))
(assert (= "@" (str.at var16 793)))
(assert (= "5" (str.at var46 191)))
(assert (= ">" (str.at var45 231)))
(assert (= "F" (str.at var0 247)))
(assert (= "i" (str.at var41 429)))
(assert (= "x" (str.at var6 124)))
(assert (= "W" (str.at var13 819)))
(assert (= "O" (str.at var60 316)))
(assert (= "i" (str.at var24 729)))
(assert (= "W" (str.at var46 434)))
(assert (= "." (str.at var54 707)))
(assert (= "S" (str.at var60 755)))
(assert (= "e" (str.at var46 534)))
(assert (= "\\" (str.at var58 676)))
(assert (= "~" (str.at var9 470)))
(assert (= "5" (str.at var54 78)))
(assert (= "I" (str.at var2 135)))
(assert (= "*" (str.at var17 240)))
(assert (= "@" (str.at var8 179)))
(assert (= "t" (str.at var46 451)))
(assert (= "j" (str.at var1 502)))
(assert (= "U" (str.at var22 797)))
(assert (= "M" (str.at var5 21)))
(assert (= "p" (str.at var26 848)))
(assert (= "L" (str.at var56 602)))
(assert (= "S" (str.at var34 275)))
(assert (= "W" (str.at var59 569)))
(assert (= "x" (str.at var31 249)))
(assert (= "}" (str.at var55 172)))
(assert (= "F" (str.at var8 797)))
(assert (= "E" (str.at var31 599)))
(assert (= "9" (str.at var43 737)))
(assert (= "q" (str.at var36 56)))
(assert (= "`" (str.at var43 758)))
(assert (= "V" (str.at var33 166)))
(assert (= "K" (str.at var56 154)))
(assert (= "0" (str.at var16 860)))
(assert (= "b" (str.at var48 388)))
(assert (= "M" (str.at var29 720)))
(assert (= "H" (str.at var37 560)))
(assert (= "L" (str.at var8 386)))
(assert (= """" (str.at var15 7)))
(assert (= "F" (str.at var15 780)))
(assert (= "&" (str.at var48 596)))
(assert (= "D" (str.at var56 642)))
(assert (= "l" (str.at var16 266)))
(assert (= "t" (str.at var23 645)))
(assert (= "p" (str.at var2 269)))
(assert (= "K" (str.at var56 291)))
(assert (= "M" (str.at var46 594)))
(assert (= "2" (str.at var44 955)))
(assert (= "s" (str.at var19 713)))
(assert (= "b" (str.at var7 976)))
(assert (= "o" (str.at var14 899)))
(assert (= "L" (str.at var55 457)))
(assert (= "z" (str.at var35 714)))
(assert (= "c" (str.at var52 688)))
(assert (= "s" (str.at var30 129)))
(assert (= "," (str.at var50 343)))
(assert (= "C" (str.at var1 865)))
(assert (= "&" (str.at var48 425)))
(assert (= "5" (str.at var33 426)))
(assert (= "=" (str.at var8 25)))
(assert (= "=" (str.at var41 348)))
(assert (= "N" (str.at var6 74)))
(assert (= ")" (str.at var48 147)))
(assert (= "R" (str.at var54 411)))
(assert (= "/" (str.at var1 116)))
(assert (= "r" (str.at var25 154)))
(assert (= "O" (str.at var25 650)))
(assert (= "C" (str.at var55 266)))
(assert (= "4" (str.at var16 1)))
(assert (= "_" (str.at var9 521)))
(assert (= "F" (str.at var0 751)))
(assert (= "+" (str.at var30 835)))
(assert (= "8" (str.at var57 763)))
(assert (= "A" (str.at var30 920)))
(assert (= "0" (str.at var48 710)))
(assert (= "m" (str.at var38 529)))
(assert (= "]" (str.at var6 886)))
(assert (= "h" (str.at var53 725)))
(assert (= "l" (str.at var54 118)))
(assert (= "}" (str.at var7 961)))
(assert (= "U" (str.at var23 698)))
(assert (= "1" (str.at var58 442)))
(assert (= "^" (str.at var42 194)))
(assert (= "5" (str.at var1 445)))
(assert (= "o" (str.at var16 516)))
(assert (= "C" (str.at var31 925)))
(assert (= "c" (str.at var29 194)))
(assert (= "," (str.at var35 447)))
(assert (= "y" (str.at var49 219)))
(assert (= "\\" (str.at var5 428)))
(assert (= "?" (str.at var2 912)))
(assert (= "s" (str.at var22 893)))
(assert (= "0" (str.at var38 914)))
(assert (= "&" (str.at var27 562)))
(assert (= "O" (str.at var54 418)))
(assert (= "c" (str.at var28 992)))
(assert (= "o" (str.at var60 716)))
(assert (= "L" (str.at var30 768)))
(assert (= ";" (str.at var31 675)))
(assert (= "C" (str.at var3 968)))
(assert (= "Z" (str.at var25 415)))
(assert (= "I" (str.at var26 426)))
(assert (= "$" (str.at var3 303)))
(assert (= """" (str.at var35 698)))
(assert (= "S" (str.at var53 861)))
(assert (= "g" (str.at var6 506)))
(assert (= ":" (str.at var28 468)))
(assert (= "4" (str.at var9 782)))
(assert (= "_" (str.at var17 179)))
(assert (= "0" (str.at var26 248)))
(assert (= "." (str.at var11 230)))
(assert (= "k" (str.at var20 497)))
(assert (= "\\" (str.at var40 893)))
(assert (= "P" (str.at var36 711)))
(assert (= "X" (str.at var52 486)))
(assert (= "r" (str.at var12 319)))
(assert (= "q" (str.at var14 506)))
(assert (= "J" (str.at var57 569)))
(assert (= "," (str.at var21 645)))
(assert (= ";" (str.at var19 485)))
(assert (= "x" (str.at var59 45)))
(assert (= "j" (str.at var40 733)))
(assert (= "\\" (str.at var20 67)))
(assert (= "R" (str.at var52 249)))
(assert (= "p" (str.at var33 297)))
(assert (= "c" (str.at var52 710)))
(assert (= "[" (str.at var10 478)))
(assert (= "l" (str.at var4 486)))
(assert (= "{" (str.at var7 225)))
(assert (= "`" (str.at var16 227)))
(assert (= "F" (str.at var1 55)))
(assert (= "^" (str.at var30 602)))
(assert (= "W" (str.at var17 517)))
(assert (= "/" (str.at var26 547)))
(assert (= "." (str.at var56 597)))
(assert (= ":" (str.at var4 901)))
(assert (= "X" (str.at var15 914)))
(assert (= "0" (str.at var59 755)))
(assert (= "x" (str.at var42 970)))
(assert (= "B" (str.at var39 641)))
(assert (= "0" (str.at var17 948)))
(assert (= "-" (str.at var5 464)))
(assert (= ">" (str.at var55 806)))
(assert (= ")" (str.at var50 804)))
(assert (= "-" (str.at var56 679)))
(assert (= "R" (str.at var9 835)))
(assert (= "{" (str.at var36 488)))
(assert (= "c" (str.at var15 412)))
(assert (= "k" (str.at var43 114)))
(assert (= "j" (str.at var20 732)))
(assert (= "P" (str.at var32 425)))
(assert (= "," (str.at var13 278)))
(assert (= "P" (str.at var43 748)))
(assert (= "3" (str.at var20 417)))
(assert (= "$" (str.at var48 231)))
(assert (= "b" (str.at var39 276)))
(assert (= "X" (str.at var9 650)))
(assert (= "~" (str.at var44 290)))
(assert (= "I" (str.at var7 484)))
(assert (= "9" (str.at var3 361)))
(assert (= "0" (str.at var35 141)))
(assert (= "u" (str.at var39 986)))
(assert (= "d" (str.at var29 250)))
(assert (= "?" (str.at var55 264)))
(assert (= "B" (str.at var9 424)))
(assert (= "{" (str.at var46 285)))
(assert (= "&" (str.at var12 891)))
(assert (= "I" (str.at var31 255)))
(assert (= "#" (str.at var31 633)))
(assert (= "4" (str.at var44 210)))
(assert (= "p" (str.at var40 6)))
(assert (= "2" (str.at var17 614)))
(assert (= "+" (str.at var29 623)))
(assert (= "v" (str.at var34 721)))
(assert (= "}" (str.at var9 812)))
(assert (= "P" (str.at var4 444)))
(assert (= "+" (str.at var29 364)))
(assert (= "W" (str.at var4 476)))
(assert (= "g" (str.at var37 889)))
(assert (= "a" (str.at var0 288)))
(assert (= "z" (str.at var20 176)))
(assert (= "e" (str.at var21 221)))
(assert (= "_" (str.at var9 485)))
(assert (= "u" (str.at var25 891)))
(assert (= "," (str.at var35 405)))
(assert (= "K" (str.at var48 787)))
(assert (= "<" (str.at var38 626)))
(assert (= "2" (str.at var42 395)))
(assert (= "?" (str.at var40 226)))
(assert (= ":" (str.at var41 454)))
(assert (= "%" (str.at var43 321)))
(assert (= "b" (str.at var28 366)))
(assert (= "@" (str.at var57 124)))
(assert (= "Z" (str.at var5 273)))
(assert (= "p" (str.at var31 722)))
(assert (= "9" (str.at var4 814)))
(assert (= "Z" (str.at var18 265)))
(assert (= "C" (str.at var0 423)))
(assert (= "/" (str.at var18 698)))
(assert (= "c" (str.at var48 173)))
(assert (= "8" (str.at var23 700)))
(assert (= "j" (str.at var43 639)))
(assert (= "9" (str.at var30 398)))
(assert (= "|" (str.at var45 237)))
(assert (= "$" (str.at var42 282)))
(assert (= "p" (str.at var33 73)))
(assert (= "0" (str.at var25 555)))
(assert (= "G" (str.at var54 325)))
(assert (= "c" (str.at var12 84)))
(assert (= "e" (str.at var16 97)))
(assert (= "B" (str.at var11 198)))
(assert (= "~" (str.at var48 796)))
(assert (= "^" (str.at var2 547)))
(assert (= "r" (str.at var60 92)))
(assert (= "@" (str.at var14 693)))
(assert (= "Z" (str.at var57 836)))
(assert (= "}" (str.at var8 195)))
(assert (= "V" (str.at var51 490)))
(assert (= "V" (str.at var5 932)))
(assert (= "Z" (str.at var15 609)))
(assert (= "U" (str.at var29 166)))
(assert (= "t" (str.at var12 1)))
(assert (= "?" (str.at var11 314)))
(assert (= "R" (str.at var58 260)))
(assert (= "Z" (str.at var30 695)))
(assert (= "`" (str.at var33 601)))
(assert (= "w" (str.at var41 92)))
(assert (= "-" (str.at var0 499)))
(assert (= "*" (str.at var36 400)))
(assert (= "K" (str.at var13 590)))
(assert (= "p" (str.at var5 47)))
(assert (= "=" (str.at var45 335)))
(assert (= "l" (str.at var37 166)))
(assert (= "5" (str.at var54 444)))
(assert (= ")" (str.at var15 116)))
(assert (= "u" (str.at var56 199)))
(assert (= "l" (str.at var11 80)))
(assert (= "@" (str.at var14 922)))
(assert (= "i" (str.at var56 554)))
(assert (= "z" (str.at var27 20)))
(assert (= ":" (str.at var57 853)))
(assert (= "/" (str.at var45 550)))
(assert (= "w" (str.at var55 411)))
(assert (= "F" (str.at var44 415)))
(assert (= "A" (str.at var57 329)))
(assert (= "6" (str.at var33 802)))
(assert (= "z" (str.at var33 429)))
(assert (= "g" (str.at var20 998)))
(assert (= "P" (str.at var35 376)))
(assert (= "a" (str.at var45 487)))
(assert (= "e" (str.at var54 742)))
(assert (= "E" (str.at var24 752)))
(assert (= "$" (str.at var18 449)))
(assert (= "\\" (str.at var39 774)))
(assert (= """" (str.at var45 836)))
(assert (= "(" (str.at var19 514)))
(assert (= "Z" (str.at var26 832)))
(assert (= "'" (str.at var45 632)))
(assert (= "5" (str.at var47 365)))
(assert (= "{" (str.at var53 629)))
(assert (= "." (str.at var1 139)))
(assert (= "-" (str.at var60 948)))
(assert (= "7" (str.at var2 233)))
(assert (= "u" (str.at var13 133)))
(assert (= "U" (str.at var5 890)))
(assert (= "U" (str.at var17 812)))
(assert (= "n" (str.at var36 478)))
(assert (= "U" (str.at var29 476)))
(assert (= "^" (str.at var25 199)))
(assert (= "f" (str.at var31 302)))
(assert (= "g" (str.at var23 427)))
(assert (= "S" (str.at var11 506)))
(assert (= "r" (str.at var41 508)))
(assert (= "l" (str.at var23 814)))
(assert (= "d" (str.at var40 519)))
(assert (= ":" (str.at var4 397)))
(assert (= "b" (str.at var58 851)))
(assert (= "S" (str.at var17 689)))
(assert (= "4" (str.at var15 520)))
(assert (= "(" (str.at var13 115)))
(assert (= "w" (str.at var51 453)))
(assert (= "c" (str.at var44 680)))
(assert (= "@" (str.at var6 741)))
(assert (= "(" (str.at var35 307)))
(assert (= "V" (str.at var0 417)))
(assert (= "\\" (str.at var9 50)))
(assert (= "r" (str.at var5 361)))
(assert (= "%" (str.at var3 621)))
(assert (= "^" (str.at var35 732)))
(assert (= "_" (str.at var0 743)))
(assert (= "v" (str.at var21 951)))
(assert (= ")" (str.at var47 471)))
(assert (= "Y" (str.at var17 930)))
(assert (= "3" (str.at var25 359)))
(assert (= "(" (str.at var25 821)))
(assert (= "S" (str.at var60 107)))
(assert (= ")" (str.at var28 33)))
(assert (= "=" (str.at var18 988)))
(assert (= "n" (str.at var13 418)))
(assert (= "1" (str.at var60 940)))
(assert (= "+" (str.at var56 374)))
(assert (= """" (str.at var32 423)))
(assert (= ")" (str.at var51 355)))
(assert (= "," (str.at var13 203)))
(assert (= "g" (str.at var19 568)))
(assert (= "r" (str.at var10 713)))
(assert (= "+" (str.at var58 695)))
(assert (= "," (str.at var53 198)))
(assert (= "$" (str.at var47 454)))
(assert (= "}" (str.at var56 114)))
(assert (= "o" (str.at var46 12)))
(assert (= "C" (str.at var39 582)))
(assert (= ">" (str.at var12 451)))
(assert (= "G" (str.at var0 959)))
(assert (= "w" (str.at var40 692)))
(assert (= "r" (str.at var21 898)))
(assert (= "," (str.at var33 17)))
(assert (= "y" (str.at var30 264)))
(assert (= "g" (str.at var23 765)))
(assert (= "P" (str.at var13 916)))
(assert (= "C" (str.at var59 745)))
(assert (= "%" (str.at var6 719)))
(assert (= "P" (str.at var30 583)))
(assert (= "C" (str.at var38 155)))
(assert (= "D" (str.at var16 678)))
(assert (= "$" (str.at var44 111)))
(assert (= "a" (str.at var26 133)))
(assert (= "U" (str.at var9 343)))
(assert (= """" (str.at var37 110)))
(assert (= "i" (str.at var33 596)))
(assert (= "C" (str.at var39 391)))
(assert (= "3" (str.at var0 658)))
(assert (= "!" (str.at var10 359)))
(assert (= "J" (str.at var52 716)))
(assert (= "m" (str.at var59 608)))
(assert (= "}" (str.at var48 329)))
(assert (= "Y" (str.at var13 641)))
(assert (= ":" (str.at var1 29)))
(assert (= "#" (str.at var56 405)))
(assert (= "]" (str.at var31 578)))
(assert (= "F" (str.at var0 890)))
(assert (= "8" (str.at var46 890)))
(assert (= "z" (str.at var59 240)))
(assert (= "6" (str.at var30 924)))
(assert (= "A" (str.at var18 614)))
(assert (= "S" (str.at var54 700)))
(assert (= "+" (str.at var7 685)))
(assert (= "." (str.at var2 811)))
(assert (= "s" (str.at var31 81)))
(assert (= "X" (str.at var15 975)))
(assert (= "^" (str.at var42 340)))
(assert (= "$" (str.at var0 849)))
(assert (= "S" (str.at var44 108)))
(assert (= "w" (str.at var10 510)))
(assert (= "y" (str.at var33 425)))
(assert (= "Y" (str.at var14 622)))
(assert (= "v" (str.at var23 653)))
(assert (= "c" (str.at var48 411)))
(assert (= "1" (str.at var48 716)))
(assert (= "J" (str.at var46 184)))
(assert (= "Z" (str.at var17 202)))
(assert (= "T" (str.at var27 301)))
(assert (= "D" (str.at var17 235)))
(assert (= "8" (str.at var19 71)))
(assert (= "b" (str.at var43 924)))
(assert (= "H" (str.at var30 774)))
(assert (= "0" (str.at var19 712)))
(assert (= "/" (str.at var34 184)))
(assert (= "6" (str.at var46 74)))
(assert (= "F" (str.at var11 980)))
(assert (= "&" (str.at var33 726)))
(assert (= "!" (str.at var25 430)))
(assert (= "!" (str.at var6 319)))
(assert (= ")" (str.at var38 808)))
(assert (= "a" (str.at var17 374)))
(assert (= ")" (str.at var42 544)))
(assert (= "1" (str.at var57 317)))
(assert (= "^" (str.at var1 356)))
(assert (= "\\" (str.at var3 847)))
(assert (= ":" (str.at var48 348)))
(assert (= ">" (str.at var58 270)))
(assert (= "V" (str.at var49 582)))
(assert (= "p" (str.at var8 285)))
(assert (= "'" (str.at var40 837)))
(assert (= ":" (str.at var33 500)))
(assert (= "{" (str.at var6 6)))
(assert (= "0" (str.at var0 837)))
(assert (= "!" (str.at var46 570)))
(assert (= "j" (str.at var5 199)))
(assert (= "`" (str.at var23 896)))
(assert (= "~" (str.at var17 427)))
(assert (= "?" (str.at var37 673)))
(assert (= ">" (str.at var24 372)))
(assert (= "`" (str.at var1 782)))
(assert (= ";" (str.at var5 61)))
(assert (= "o" (str.at var18 992)))
(assert (= "p" (str.at var43 138)))
(assert (= "l" (str.at var28 863)))
(assert (= "y" (str.at var37 562)))
(assert (= "L" (str.at var33 277)))
(assert (= "3" (str.at var57 787)))
(assert (= "L" (str.at var55 744)))
(assert (= "V" (str.at var17 53)))
(assert (= "C" (str.at var17 756)))
(assert (= "[" (str.at var7 493)))
(assert (= "3" (str.at var31 865)))
(assert (= "h" (str.at var56 498)))
(assert (= "H" (str.at var45 351)))
(assert (= "Y" (str.at var53 199)))
(assert (= "r" (str.at var56 204)))
(assert (= "W" (str.at var40 587)))
(assert (= "}" (str.at var6 747)))
(assert (= "'" (str.at var58 915)))
(assert (= "Z" (str.at var31 699)))
(assert (= "|" (str.at var24 242)))
(assert (= "~" (str.at var7 336)))
(assert (= "Y" (str.at var36 877)))
(assert (= "r" (str.at var23 482)))
(assert (= "-" (str.at var32 664)))
(assert (= "<" (str.at var34 318)))
(assert (= "," (str.at var35 104)))
(assert (= "D" (str.at var31 906)))
(assert (= "p" (str.at var40 264)))
(assert (= "p" (str.at var16 848)))
(assert (= "M" (str.at var30 98)))
(assert (= "e" (str.at var8 112)))
(assert (= "?" (str.at var17 437)))
(assert (= "p" (str.at var6 236)))
(assert (= "J" (str.at var39 645)))
(assert (= "g" (str.at var60 772)))
(assert (= "1" (str.at var25 815)))
(assert (= "9" (str.at var47 243)))
(assert (= "`" (str.at var22 68)))
(assert (= ">" (str.at var20 746)))
(assert (= "p" (str.at var32 210)))
(assert (= "j" (str.at var53 207)))
(assert (= "T" (str.at var11 280)))
(assert (= "`" (str.at var39 837)))
(assert (= "l" (str.at var11 996)))
(assert (= "5" (str.at var26 885)))
(assert (= "O" (str.at var44 796)))
(assert (= "p" (str.at var0 529)))
(assert (= "1" (str.at var25 137)))
(assert (= "E" (str.at var7 252)))
(assert (= ":" (str.at var28 667)))
(assert (= "Y" (str.at var24 973)))
(assert (= "v" (str.at var29 290)))
(assert (= "m" (str.at var59 887)))
(assert (= "g" (str.at var36 755)))
(assert (= "]" (str.at var41 669)))
(assert (= "U" (str.at var45 985)))
(assert (= "o" (str.at var42 62)))
(assert (= "[" (str.at var31 228)))
(assert (= "T" (str.at var47 150)))
(assert (= "m" (str.at var34 320)))
(assert (= "|" (str.at var42 906)))
(assert (= "U" (str.at var44 342)))
(assert (= "T" (str.at var44 900)))
(assert (= "N" (str.at var51 434)))
(assert (= "r" (str.at var4 88)))
(assert (= ":" (str.at var20 613)))
(assert (= "Z" (str.at var3 945)))
(assert (= "N" (str.at var56 141)))
(assert (= "2" (str.at var25 407)))
(assert (= "}" (str.at var5 945)))
(assert (= ":" (str.at var22 674)))
(assert (= "W" (str.at var32 999)))
(assert (= "I" (str.at var37 561)))
(assert (= "f" (str.at var20 401)))
(assert (= "?" (str.at var21 137)))
(assert (= "z" (str.at var4 187)))
(assert (= "F" (str.at var38 814)))
(assert (= "p" (str.at var3 94)))
(assert (= "[" (str.at var24 778)))
(assert (= "4" (str.at var54 189)))
(assert (= "Z" (str.at var6 975)))
(assert (= "'" (str.at var15 712)))
(assert (= "u" (str.at var55 248)))
(assert (= "w" (str.at var15 769)))
(assert (= ";" (str.at var10 485)))
(assert (= "n" (str.at var32 681)))
(assert (= "~" (str.at var13 306)))
(assert (= "N" (str.at var44 35)))
(assert (= "'" (str.at var33 67)))
(assert (= "E" (str.at var29 443)))
(assert (= "W" (str.at var5 445)))
(assert (= "%" (str.at var12 132)))
(assert (= "H" (str.at var30 259)))
(assert (= "j" (str.at var23 902)))
(assert (= "E" (str.at var31 230)))
(assert (= "7" (str.at var7 737)))
(assert (= "O" (str.at var25 932)))
(assert (= "?" (str.at var32 770)))
(assert (= "n" (str.at var55 471)))
(assert (= "O" (str.at var8 114)))
(assert (= "S" (str.at var24 904)))
(assert (= "W" (str.at var40 71)))
(assert (= "@" (str.at var21 362)))
(assert (= "<" (str.at var51 202)))
(assert (= "/" (str.at var16 236)))
(assert (= "X" (str.at var29 605)))
(assert (= "!" (str.at var2 8)))
(assert (= "W" (str.at var21 480)))
(assert (= "{" (str.at var32 828)))
(assert (= "N" (str.at var52 830)))
(assert (= "V" (str.at var15 675)))
(assert (= "j" (str.at var12 235)))
(assert (= "o" (str.at var33 280)))
(assert (= "j" (str.at var59 440)))
(assert (= "'" (str.at var48 729)))
(assert (= "g" (str.at var15 845)))
(assert (= "[" (str.at var13 470)))
(assert (= "T" (str.at var10 996)))
(assert (= "/" (str.at var24 129)))
(assert (= "r" (str.at var49 655)))
(assert (= "|" (str.at var48 768)))
(assert (= "9" (str.at var14 15)))
(assert (= "p" (str.at var29 331)))
(assert (= "_" (str.at var21 570)))
(assert (= "p" (str.at var51 139)))
(assert (= "<" (str.at var34 216)))
(assert (= "h" (str.at var42 843)))
(assert (= "!" (str.at var27 3)))
(assert (= "w" (str.at var30 779)))
(assert (= "B" (str.at var55 463)))
(assert (= "9" (str.at var11 663)))
(assert (= "b" (str.at var54 717)))
(assert (= "~" (str.at var1 702)))
(assert (= "v" (str.at var6 253)))
(assert (= "G" (str.at var35 311)))
(assert (= "H" (str.at var57 153)))
(assert (= "}" (str.at var38 833)))
(assert (= "3" (str.at var46 221)))
(assert (= "6" (str.at var60 27)))
(assert (= "X" (str.at var60 898)))
(assert (= "T" (str.at var11 216)))
(assert (= "3" (str.at var41 205)))
(assert (= "2" (str.at var30 618)))
(assert (= "." (str.at var0 37)))
(assert (= "G" (str.at var56 484)))
(assert (= "%" (str.at var0 430)))
(assert (= "d" (str.at var31 527)))
(assert (= "0" (str.at var57 503)))
(assert (= "0" (str.at var51 465)))
(assert (= "k" (str.at var1 171)))
(assert (= "@" (str.at var50 110)))
(assert (= "k" (str.at var14 983)))
(assert (= "J" (str.at var52 229)))
(assert (= "/" (str.at var14 253)))
(assert (= "i" (str.at var58 418)))
(assert (= "j" (str.at var49 30)))
(assert (= "%" (str.at var3 191)))
(assert (= "#" (str.at var30 503)))
(assert (= "(" (str.at var26 931)))
(assert (= "u" (str.at var28 418)))
(assert (= ")" (str.at var56 4)))
(assert (= "k" (str.at var11 639)))
(assert (= "Z" (str.at var20 796)))
(assert (= "K" (str.at var60 86)))
(assert (= "y" (str.at var17 736)))
(assert (= "J" (str.at var32 59)))
(assert (= "K" (str.at var8 787)))
(assert (= "X" (str.at var5 893)))
(assert (= ">" (str.at var44 521)))
(assert (= "?" (str.at var31 594)))
(assert (= "S" (str.at var43 759)))
(assert (= "e" (str.at var10 326)))
(assert (= "2" (str.at var56 744)))
(assert (= """" (str.at var51 773)))
(assert (= "a" (str.at var35 811)))
(assert (= "%" (str.at var47 227)))
(assert (= "M" (str.at var20 287)))
(assert (= "S" (str.at var54 337)))
(assert (= "I" (str.at var18 883)))
(assert (= "S" (str.at var22 81)))
(assert (= "$" (str.at var42 933)))
(assert (= "I" (str.at var38 140)))
(assert (= "W" (str.at var30 874)))
(assert (= "v" (str.at var11 415)))
(assert (= "D" (str.at var48 832)))
(assert (= "F" (str.at var8 90)))
(assert (= "b" (str.at var45 142)))
(assert (= "w" (str.at var59 836)))
(assert (= "+" (str.at var41 188)))
(assert (= "j" (str.at var24 938)))
(assert (= "M" (str.at var33 877)))
(assert (= "8" (str.at var9 718)))
(assert (= "z" (str.at var9 697)))
(assert (= "w" (str.at var18 180)))
(assert (= ")" (str.at var19 692)))
(assert (= "r" (str.at var20 354)))
(assert (= "}" (str.at var55 682)))
(assert (= "=" (str.at var60 146)))
(assert (= "X" (str.at var40 123)))
(assert (= "k" (str.at var60 700)))
(assert (= "-" (str.at var19 318)))
(assert (= "4" (str.at var21 298)))
(assert (= "B" (str.at var23 416)))
(assert (= "o" (str.at var47 947)))
(assert (= "q" (str.at var10 774)))
(assert (= "3" (str.at var33 757)))
(assert (= "{" (str.at var35 663)))
(assert (= "u" (str.at var59 958)))
(assert (= "X" (str.at var4 918)))
(assert (= "t" (str.at var52 55)))
(assert (= "," (str.at var2 290)))
(assert (= "G" (str.at var59 345)))
(assert (= "Q" (str.at var30 897)))
(assert (= "B" (str.at var18 451)))
(assert (= "-" (str.at var17 328)))
(assert (= "X" (str.at var54 854)))
(assert (= "c" (str.at var39 990)))
(assert (= "o" (str.at var40 70)))
(assert (= ";" (str.at var51 405)))
(assert (= "," (str.at var23 891)))
(assert (= "o" (str.at var25 323)))
(assert (= "m" (str.at var49 36)))
(assert (= "}" (str.at var37 327)))
(assert (= "Q" (str.at var23 980)))
(assert (= "`" (str.at var38 560)))
(assert (= "j" (str.at var29 459)))
(assert (= "X" (str.at var37 463)))
(assert (= "z" (str.at var51 442)))
(assert (= "k" (str.at var7 887)))
(assert (= "w" (str.at var31 720)))
(assert (= "f" (str.at var26 116)))
(assert (= "D" (str.at var7 695)))
(assert (= "%" (str.at var2 283)))
(assert (= "J" (str.at var56 735)))
(assert (= "/" (str.at var4 372)))
(assert (= "h" (str.at var5 312)))
(assert (= ":" (str.at var47 216)))
(assert (= "'" (str.at var52 644)))
(assert (= "T" (str.at var46 305)))
(assert (= "3" (str.at var23 199)))
(assert (= "s" (str.at var18 174)))
(assert (= "5" (str.at var53 361)))
(assert (= "t" (str.at var26 315)))
(assert (= "p" (str.at var44 868)))
(assert (= "Q" (str.at var19 487)))
(assert (= "`" (str.at var16 946)))
(assert (= "D" (str.at var41 984)))
(assert (= "Z" (str.at var23 188)))
(assert (= "7" (str.at var46 509)))
(assert (= "1" (str.at var21 485)))
(assert (= "k" (str.at var48 203)))
(assert (= "3" (str.at var8 568)))
(assert (= "d" (str.at var18 540)))
(assert (= "z" (str.at var58 566)))
(assert (= "y" (str.at var53 120)))
(assert (= "k" (str.at var54 137)))
(assert (= "4" (str.at var18 289)))
(assert (= "o" (str.at var29 543)))
(assert (= "o" (str.at var26 811)))
(assert (= "t" (str.at var19 827)))
(assert (= "." (str.at var33 379)))
(assert (= "K" (str.at var24 651)))
(assert (= "#" (str.at var46 423)))
(assert (= "o" (str.at var16 846)))
(assert (= "b" (str.at var22 634)))
(assert (= "?" (str.at var58 498)))
(assert (= ";" (str.at var29 21)))
(assert (= "^" (str.at var16 460)))
(assert (= ")" (str.at var45 394)))
(assert (= "S" (str.at var4 777)))
(assert (= "\\" (str.at var2 396)))
(assert (= "A" (str.at var20 234)))
(assert (= "|" (str.at var53 832)))
(assert (= "+" (str.at var3 294)))
(assert (= "c" (str.at var45 951)))
(assert (= "f" (str.at var37 720)))
(assert (= "y" (str.at var32 754)))
(assert (= "*" (str.at var5 17)))
(assert (= "~" (str.at var50 217)))
(assert (= "N" (str.at var20 758)))
(assert (= "K" (str.at var18 41)))
(assert (= "p" (str.at var44 751)))
(assert (= "h" (str.at var33 730)))
(assert (= ")" (str.at var39 375)))
(assert (= "O" (str.at var7 212)))
(assert (= "C" (str.at var12 822)))
(assert (= "3" (str.at var16 859)))
(assert (= "^" (str.at var25 84)))
(assert (= "{" (str.at var40 151)))
(assert (= ">" (str.at var50 803)))
(assert (= "q" (str.at var51 796)))
(assert (= "}" (str.at var43 620)))
(assert (= "h" (str.at var0 113)))
(assert (= "T" (str.at var8 701)))
(assert (= "[" (str.at var47 320)))
(assert (= "d" (str.at var32 218)))
(assert (= "W" (str.at var16 896)))
(assert (= "?" (str.at var4 407)))
(assert (= "/" (str.at var54 432)))
(assert (= "u" (str.at var17 864)))
(assert (= "s" (str.at var34 960)))
(assert (= "Q" (str.at var49 481)))
(assert (= "H" (str.at var7 205)))
(assert (= "t" (str.at var16 977)))
(assert (= "Z" (str.at var54 454)))
(assert (= "<" (str.at var0 42)))
(assert (= "2" (str.at var11 892)))
(assert (= "b" (str.at var40 366)))
(assert (= "$" (str.at var9 421)))
(assert (= "X" (str.at var8 993)))
(assert (= "G" (str.at var41 547)))
(assert (= "," (str.at var52 86)))
(assert (= "!" (str.at var35 915)))
(assert (= "(" (str.at var43 383)))
(assert (= "o" (str.at var52 632)))
(assert (= "@" (str.at var53 45)))
(assert (= "?" (str.at var58 796)))
(assert (= "e" (str.at var15 271)))
(assert (= "_" (str.at var17 795)))
(assert (= ";" (str.at var21 541)))
(assert (= "i" (str.at var45 813)))
(assert (= "S" (str.at var7 64)))
(assert (= "k" (str.at var17 446)))
(assert (= "Q" (str.at var5 976)))
(assert (= "#" (str.at var28 91)))
(assert (= "d" (str.at var44 351)))
(assert (= "O" (str.at var38 152)))
(assert (= "!" (str.at var47 937)))
(assert (= "," (str.at var18 100)))
(assert (= "k" (str.at var3 456)))
(assert (= "E" (str.at var20 379)))
(assert (= "I" (str.at var60 953)))
(assert (= ";" (str.at var2 546)))
(assert (= "j" (str.at var52 583)))
(assert (= "w" (str.at var1 985)))
(assert (= "j" (str.at var36 176)))
(assert (= "<" (str.at var18 390)))
(assert (= "j" (str.at var38 638)))
(assert (= "$" (str.at var42 789)))
(assert (= "J" (str.at var18 897)))
(assert (= "%" (str.at var33 130)))
(check-sat)